(set-logic LIA)
(declare-var x Int)
(declare-var y Int)
(declare-var n Int)
(declare-var v1 Int)
(declare-var v2 Int)
(declare-var v3 Int)
(declare-var x! Int)
(declare-var y! Int)
(declare-var n! Int)
(declare-var v1! Int)
(declare-var v2! Int)
(declare-var v3! Int)
(synth-fun inv-f((parameter0 Int)(parameter1 Int)(parameter2 Int)(parameter3 Int)(parameter4 Int)(parameter5 Int))Bool) 
(constraint (=> (= x 1)(inv-f x y n v1 v2 v3 )))
(constraint (=> (and (inv-f x y n v1 v2 v3 ) (and (and (<= x n) (= y! (- n x)) ) (= x! (+ x 1 )) ) )(inv-f x! y! n! v1! v2! v3! )))
(constraint (=> (inv-f x y n v1 v2 v3 )(not (and (and (<= x n) (= y (- n x)) ) (or (>= y n) (> 0 y) ) ))))
(check-synth)

